[runlim] version:		1.10
[runlim] time limit:		311040000 seconds
[runlim] real time limit:	1800 seconds
[runlim] space limit:		30000 MB
[runlim] argv[0]:		python
[runlim] argv[1]:		FE.py
[runlim] argv[2]:		R-dwt__503.mtx.rnd
[runlim] start:			Wed Oct  9 04:36:54 2024
[runlim] main pid:		17454
[runlim] log captured:
[runlim] sample:		10.0 time, 10.0 real, 1022.1 MB
[runlim] sample:		20.0 time, 20.0 real, 2003.5 MB
[runlim] sample:		30.0 time, 30.0 real, 3024.5 MB
71
46
Version identifier: 20.1.0.0 | 2020-11-10 | 9bedb6d68
CPXPARAM_Simplex_PGradient                       4
CPXPARAM_Read_DataCheck                          1
CPXPARAM_MIP_Strategy_File                       3
CPXPARAM_TimeLimit                               1800
CPXPARAM_WorkMem                                 122880
[runlim] sample:		40.0 time, 40.0 real, 3558.4 MB
[runlim] sample:		50.0 time, 50.0 real, 5343.3 MB
[runlim] sample:		60.0 time, 60.0 real, 5343.3 MB
Presolve has eliminated 459 rows and 252 columns...
Tried aggregator 1 time.
[runlim] sample:		72.8 time, 70.0 real, 8496.4 MB
[runlim] sample:		92.8 time, 80.0 real, 8510.4 MB
[runlim] sample:		112.8 time, 90.0 real, 8514.7 MB
[runlim] sample:		132.8 time, 100.0 real, 8514.7 MB
[runlim] sample:		152.8 time, 110.0 real, 8514.7 MB
[runlim] sample:		172.8 time, 120.0 real, 8517.4 MB
[runlim] sample:		192.8 time, 130.0 real, 8518.5 MB
[runlim] sample:		212.8 time, 140.0 real, 8523.7 MB
[runlim] sample:		232.8 time, 150.0 real, 8523.7 MB
[runlim] sample:		252.8 time, 160.0 real, 8531.7 MB
[runlim] sample:		272.8 time, 170.0 real, 8531.7 MB
[runlim] sample:		292.8 time, 180.0 real, 8535.7 MB
[runlim] sample:		312.7 time, 190.0 real, 8539.7 MB
[runlim] sample:		332.7 time, 200.0 real, 8543.7 MB
[runlim] sample:		352.7 time, 210.0 real, 8545.7 MB
[runlim] sample:		372.7 time, 220.0 real, 8549.8 MB
[runlim] sample:		392.7 time, 230.0 real, 8555.8 MB
[runlim] sample:		412.7 time, 240.0 real, 8557.8 MB
[runlim] sample:		432.7 time, 250.0 real, 8559.0 MB
[runlim] sample:		452.7 time, 260.0 real, 8571.0 MB
[runlim] sample:		472.7 time, 270.0 real, 8573.0 MB
[runlim] sample:		492.7 time, 280.0 real, 8573.0 MB
[runlim] sample:		512.7 time, 290.0 real, 8573.0 MB
[runlim] sample:		532.7 time, 300.0 real, 8577.3 MB
[runlim] sample:		552.7 time, 310.0 real, 8583.3 MB
[runlim] sample:		572.7 time, 320.0 real, 8585.3 MB
[runlim] sample:		592.7 time, 330.0 real, 8587.3 MB
[runlim] sample:		612.7 time, 340.0 real, 8589.3 MB
[runlim] sample:		632.7 time, 350.0 real, 8593.8 MB
[runlim] sample:		652.7 time, 360.0 real, 8599.1 MB
[runlim] sample:		672.7 time, 370.0 real, 8605.1 MB
[runlim] sample:		692.7 time, 380.0 real, 8607.1 MB
[runlim] sample:		712.7 time, 390.0 real, 8610.9 MB
[runlim] sample:		732.7 time, 400.0 real, 8615.1 MB
[runlim] sample:		752.7 time, 410.0 real, 8617.1 MB
[runlim] sample:		772.7 time, 420.0 real, 8622.7 MB
[runlim] sample:		792.7 time, 430.0 real, 8622.9 MB
[runlim] sample:		812.7 time, 440.0 real, 8627.2 MB
[runlim] sample:		832.7 time, 450.0 real, 8629.2 MB
[runlim] sample:		852.7 time, 460.0 real, 8635.2 MB
[runlim] sample:		872.7 time, 470.0 real, 8639.2 MB
[runlim] sample:		892.7 time, 480.0 real, 8643.2 MB
[runlim] sample:		912.7 time, 490.0 real, 8651.2 MB
[runlim] sample:		932.7 time, 500.0 real, 8653.2 MB
[runlim] sample:		952.7 time, 510.0 real, 8653.2 MB
[runlim] sample:		972.7 time, 520.0 real, 8661.2 MB
[runlim] sample:		992.7 time, 530.0 real, 8661.2 MB
[runlim] sample:		1012.7 time, 540.0 real, 8663.2 MB
[runlim] sample:		1032.7 time, 550.0 real, 8665.2 MB
[runlim] sample:		1052.7 time, 560.0 real, 8667.2 MB
[runlim] sample:		1072.7 time, 570.0 real, 8671.2 MB
[runlim] sample:		1092.7 time, 580.0 real, 8671.2 MB
[runlim] sample:		1112.7 time, 590.0 real, 8676.7 MB
[runlim] sample:		1132.7 time, 600.0 real, 8681.2 MB
[runlim] sample:		1152.7 time, 610.0 real, 8683.0 MB
[runlim] sample:		1172.7 time, 620.0 real, 8687.2 MB
[runlim] sample:		1192.7 time, 630.0 real, 8691.2 MB
[runlim] sample:		1212.7 time, 640.0 real, 8693.2 MB
[runlim] sample:		1232.7 time, 650.0 real, 8693.2 MB
[runlim] sample:		1252.7 time, 660.0 real, 8697.2 MB
[runlim] sample:		1272.7 time, 670.0 real, 8699.2 MB
[runlim] sample:		1292.7 time, 680.0 real, 8701.2 MB
[runlim] sample:		1312.7 time, 690.0 real, 8703.2 MB
[runlim] sample:		1332.7 time, 700.0 real, 8707.2 MB
[runlim] sample:		1352.7 time, 710.0 real, 8707.5 MB
[runlim] sample:		1372.7 time, 720.0 real, 8710.5 MB
[runlim] sample:		1392.7 time, 730.0 real, 8714.0 MB
[runlim] sample:		1412.7 time, 740.0 real, 8719.3 MB
[runlim] sample:		1432.7 time, 750.0 real, 8727.3 MB
[runlim] sample:		1452.7 time, 760.0 real, 8727.3 MB
[runlim] sample:		1472.7 time, 770.0 real, 8731.3 MB
[runlim] sample:		1492.7 time, 780.0 real, 8739.3 MB
[runlim] sample:		1512.7 time, 790.0 real, 8747.1 MB
[runlim] sample:		1532.7 time, 800.0 real, 8755.1 MB
[runlim] sample:		1552.7 time, 810.0 real, 8763.3 MB
[runlim] sample:		1572.7 time, 820.0 real, 8765.3 MB
[runlim] sample:		1592.7 time, 830.0 real, 8767.3 MB
[runlim] sample:		1605.5 time, 840.0 real, 8771.3 MB
[runlim] sample:		1615.5 time, 850.0 real, 8771.3 MB
[runlim] sample:		1625.5 time, 860.0 real, 8775.3 MB
[runlim] sample:		1635.5 time, 870.0 real, 5499.4 MB
[runlim] sample:		1645.5 time, 880.0 real, 5499.4 MB
[runlim] sample:		1655.5 time, 890.0 real, 5499.4 MB
[runlim] sample:		1665.5 time, 900.0 real, 5499.4 MB
[runlim] sample:		1675.5 time, 910.0 real, 5499.4 MB
Presolve has eliminated 520551 rows and 252 columns...
MIP Presolve eliminated 520551 rows and 252 columns.
MIP Presolve modified 148019 coefficients.
Reduced MIP has 743505 rows, 252757 columns, and 76389702 nonzeros.
Reduced MIP has 252757 binaries, 0 generals, 0 SOSs, and 0 indicators.
Presolve time = 872.58 sec. (1326127.35 ticks)
[runlim] sample:		1685.5 time, 920.0 real, 4949.9 MB
[runlim] sample:		1695.5 time, 930.0 real, 8595.6 MB
[runlim] sample:		1705.5 time, 940.0 real, 9440.9 MB
[runlim] sample:		1715.5 time, 950.0 real, 9441.1 MB
[runlim] sample:		1725.5 time, 960.0 real, 9447.4 MB
[runlim] sample:		1735.5 time, 970.0 real, 9449.4 MB
[runlim] sample:		1745.5 time, 980.0 real, 9451.4 MB
[runlim] sample:		1755.5 time, 990.0 real, 9451.4 MB
[runlim] sample:		1765.5 time, 1000.0 real, 9453.4 MB
[runlim] sample:		1775.5 time, 1010.0 real, 9455.4 MB
[runlim] sample:		1785.5 time, 1020.0 real, 9457.4 MB
[runlim] sample:		1795.5 time, 1030.0 real, 9457.4 MB
[runlim] sample:		1805.5 time, 1040.0 real, 9461.4 MB
[runlim] sample:		1815.5 time, 1050.0 real, 9463.4 MB
[runlim] sample:		1825.5 time, 1060.0 real, 9465.4 MB
[runlim] sample:		1835.5 time, 1070.0 real, 9465.4 MB
[runlim] sample:		1845.5 time, 1080.0 real, 9467.4 MB
[runlim] sample:		1855.5 time, 1090.0 real, 9469.4 MB
[runlim] sample:		1865.5 time, 1100.0 real, 9471.4 MB
[runlim] sample:		1875.5 time, 1110.0 real, 9473.4 MB
[runlim] sample:		1885.5 time, 1120.0 real, 9477.4 MB
[runlim] sample:		1895.5 time, 1130.0 real, 9479.4 MB
[runlim] sample:		1905.5 time, 1140.0 real, 9481.4 MB
[runlim] sample:		1915.5 time, 1150.0 real, 9481.4 MB
[runlim] sample:		1925.5 time, 1160.0 real, 9483.4 MB
[runlim] sample:		1935.5 time, 1170.0 real, 9485.4 MB
[runlim] sample:		1945.5 time, 1180.0 real, 9487.6 MB
[runlim] sample:		1955.5 time, 1190.0 real, 9490.8 MB
[runlim] sample:		1965.5 time, 1200.0 real, 9490.8 MB
[runlim] sample:		1975.5 time, 1210.0 real, 9492.8 MB
[runlim] sample:		1985.5 time, 1220.0 real, 9496.8 MB
[runlim] sample:		1995.5 time, 1230.0 real, 9498.3 MB
[runlim] sample:		2005.5 time, 1240.0 real, 9506.8 MB
[runlim] sample:		2015.5 time, 1250.0 real, 9509.7 MB
[runlim] sample:		2025.5 time, 1260.0 real, 9509.7 MB
[runlim] sample:		2035.5 time, 1270.0 real, 9511.7 MB
[runlim] sample:		2045.5 time, 1280.0 real, 9513.7 MB
[runlim] sample:		2055.5 time, 1290.0 real, 9513.7 MB
[runlim] sample:		2065.5 time, 1300.0 real, 9519.2 MB
[runlim] sample:		2075.5 time, 1310.0 real, 9523.2 MB
[runlim] sample:		2085.5 time, 1320.0 real, 9525.2 MB
[runlim] sample:		2095.5 time, 1330.0 real, 9527.2 MB
[runlim] sample:		2105.5 time, 1340.0 real, 9529.2 MB
[runlim] sample:		2115.5 time, 1350.0 real, 9529.2 MB
[runlim] sample:		2125.5 time, 1360.0 real, 9531.2 MB
[runlim] sample:		2135.5 time, 1370.0 real, 9533.2 MB
[runlim] sample:		2145.5 time, 1380.0 real, 9535.2 MB
[runlim] sample:		2155.5 time, 1390.0 real, 8608.1 MB
[runlim] sample:		2165.5 time, 1400.0 real, 8608.1 MB
[runlim] sample:		2175.5 time, 1410.0 real, 8608.1 MB
[runlim] sample:		2185.5 time, 1420.0 real, 8608.1 MB
Probing time = 0.47 sec. (71.33 ticks)
[runlim] sample:		2196.3 time, 1430.0 real, 8036.0 MB
Presolve has eliminated 0 rows and 0 columns...
Tried aggregator 1 time.
[runlim] sample:		2206.3 time, 1440.0 real, 8897.5 MB
[runlim] sample:		2226.2 time, 1450.0 real, 10516.6 MB
[runlim] sample:		2246.2 time, 1460.0 real, 10518.6 MB
[runlim] sample:		2266.2 time, 1470.0 real, 10523.4 MB
[runlim] sample:		2286.2 time, 1480.0 real, 10529.2 MB
[runlim] sample:		2306.2 time, 1490.0 real, 10531.2 MB
[runlim] sample:		2326.2 time, 1500.0 real, 10533.2 MB
[runlim] sample:		2346.2 time, 1510.0 real, 10537.2 MB
[runlim] sample:		2366.2 time, 1520.0 real, 10541.2 MB
[runlim] sample:		2386.2 time, 1530.0 real, 10543.2 MB
[runlim] sample:		2406.2 time, 1540.0 real, 10545.2 MB
[runlim] sample:		2426.2 time, 1550.0 real, 10549.2 MB
[runlim] sample:		2446.2 time, 1560.0 real, 10552.2 MB
[runlim] sample:		2466.2 time, 1570.0 real, 10554.5 MB
[runlim] sample:		2486.2 time, 1580.0 real, 10557.3 MB
[runlim] sample:		2506.2 time, 1590.0 real, 10561.3 MB
[runlim] sample:		2526.2 time, 1600.0 real, 10565.3 MB
[runlim] sample:		2546.2 time, 1610.0 real, 10569.3 MB
[runlim] sample:		2566.2 time, 1620.0 real, 10573.3 MB
[runlim] sample:		2586.2 time, 1630.0 real, 10577.3 MB
[runlim] sample:		2606.2 time, 1640.0 real, 10581.3 MB
[runlim] sample:		2626.2 time, 1650.0 real, 10584.0 MB
[runlim] sample:		2646.2 time, 1660.0 real, 10588.3 MB
[runlim] sample:		2666.2 time, 1670.0 real, 10591.1 MB
[runlim] sample:		2686.2 time, 1680.0 real, 10595.1 MB
[runlim] sample:		2706.2 time, 1690.0 real, 10599.3 MB
[runlim] sample:		2726.2 time, 1700.0 real, 10603.3 MB
[runlim] sample:		2746.2 time, 1710.0 real, 10605.3 MB
[runlim] sample:		2766.2 time, 1720.0 real, 10609.3 MB
[runlim] sample:		2786.2 time, 1730.0 real, 10611.3 MB
[runlim] sample:		2806.2 time, 1740.0 real, 10615.3 MB
[runlim] sample:		2826.2 time, 1750.0 real, 10617.1 MB
[runlim] sample:		2846.2 time, 1760.0 real, 10623.1 MB
[runlim] sample:		2866.2 time, 1770.0 real, 10627.1 MB
[runlim] sample:		2886.2 time, 1780.0 real, 10631.1 MB
[runlim] sample:		2906.2 time, 1790.0 real, 10631.1 MB
[runlim] sample:		2926.2 time, 1800.0 real, 10633.1 MB
[runlim] end:			Wed Oct  9 05:06:55 2024
[runlim] status:		out of time
[runlim] result:		2
[runlim] children:		0
[runlim] real:			1800.12 seconds
[runlim] time:			2926.33 seconds
[runlim] space:			10633.1 MB
[runlim] samples:		18001
